NAME : LC2_6_10
TYPE : PDPTW
DIMENSION : 150
EDGE_WEIGHT_TYPE : EXACT_2D
NODE_COORD_SECTION
1 1 0
2 150 0
3 0 0
4 -10 1715
5 0 2
6 1611 2491
7 3 122
8 3625 90
9 165 85
10 90 232
11 198 20
12 0 470
13 30 599
14 429 7
15 887 1767
16 8 58
17 2286 90
18 243 35
19 90 0
20 45 -30
21 39 0
22 30 966
23 481 12
24 815 1695
25 13 279
26 1158 90
27 97 40
28 90 555
29 52 -10
30 221 0
31 -20 2734
32 0 17
33 1484 2364
34 18 64
35 1149 90
36 141 231
37 90 0
38 211 -30
39 464 0
40 -20 503
41 0 22
42 2803 3683
43 23 66
44 3431 90
45 83 219
46 90 0
47 210 20
48 0 70
49 20 99
50 38 27
51 745 1625
52 28 165
53 3686 90
54 117 262
55 90 319
56 49 20
57 0 468
58 10 285
59 411 32
60 1984 2864
61 33 182
62 2957 90
63 239 181
64 90 0
65 114 10
66 0 303
67 -20 1366
68 0 37
69 81 961
70 38 142
71 1661 90
72 102 51
73 90 0
74 62 10
75 0 407
76 -20 2620
77 0 42
78 1514 2394
79 43 244
80 2999 90
81 125 23
82 90 0
83 23 -20
84 415 0
85 20 113
86 563 47
87 1433 2313
88 48 262
89 2265 90
90 75 28
91 90 0
92 63 -20
93 480 0
94 20 592
95 346 52
96 83 963
97 53 179
98 3133 90
99 154 257
100 90 0
101 38 -10
102 9 0
103 20 105
104 21 57
105 2769 3649
106 58 28
107 1005 90
108 25 150
109 0 0
110 32 -10
111 431 0
112 10 623
113 277 62
114 1886 2766
115 63 186
116 938 90
117 252 60
118 90 0
119 10 -10
120 197 0
121 -20 2450
122 0 67
123 298 1178
124 68 101
125 2897 90
126 103 35
127 90 49
128 244 -20
129 25 0
130 -20 1680
131 0 72
132 2390 3270
133 73 74
134 2656 90
135 222 160
136 90 397
137 163 -20
138 567 0
139 -10 2311
140 0 77
141 2209 3089
142 78 17
143 1049 90
144 203 200
145 90 0
146 137 10
147 0 418
148 -10 581
149 0 82
150 937 1817
PICKUP_AND_DELIVERY_SECTION
1 0 0 0 0 0 0
2 0 0 0 0 3815 0
3 0 0 0 0 0 248
4 0 0 0 0 90 90
5 0 0 0 0 221 221
6 0 0 0 0 252 252
7 0 0 0 0 -20 -20
8 0 0 0 0 0 0
9 0 0 0 0 2740 2740
10 0 0 0 0 5 0
11 0 0 0 0 1330 1330
12 0 0 0 0 55 55
13 0 0 0 0 90 90
14 0 0 0 0 70 70
15 0 0 0 0 287 287
16 0 0 0 0 -10 -10
17 0 0 0 0 0 0
18 0 0 0 0 2098 2098
19 0 0 0 0 10 10
20 0 0 0 0 997 997
21 0 0 0 0 30 30
22 0 0 0 0 90 90
23 0 0 0 0 27 27
24 0 0 0 0 472 472
25 0 0 0 0 10 10
26 0 0 0 0 217 0
27 0 0 0 0 154 154
28 0 0 0 0 15 0
29 0 0 0 0 2169 2169
30 0 0 0 0 226 226
31 0 0 0 0 90 90
32 0 0 0 0 21 21
33 0 0 0 0 0 0
34 0 0 0 0 20 20
35 0 0 0 0 204 0
36 0 0 0 0 81 81
37 0 0 0 0 20 20
38 0 0 0 0 3523 3523
39 0 0 0 0 50 50
40 0 0 0 0 90 90
41 0 0 0 0 178 178
42 0 0 0 0 515 515
43 0 0 0 0 10 10
44 0 0 0 0 363 0
45 0 0 0 0 96 96
46 0 0 0 0 25 25
47 0 0 0 0 940 940
48 0 0 0 0 173 173
49 0 0 0 0 90 90
50 0 0 0 0 180 180
51 0 0 0 0 0 0
52 0 0 0 0 -20 -20
53 0 0 0 0 0 0
54 0 0 0 0 1929 1929
55 0 0 0 0 30 0
56 0 0 0 0 1998 1998
57 0 0 0 0 176 176
58 0 0 0 0 90 90
59 0 0 0 0 46 46
60 0 0 0 0 375 375
61 0 0 0 0 20 20
62 0 0 0 0 379 0
63 0 0 0 0 94 94
64 0 0 0 0 35 35
65 0 0 0 0 1060 1060
66 0 0 0 0 34 34
67 0 0 0 0 90 90
68 0 0 0 0 231 231
69 0 0 0 0 0 0
70 0 0 0 0 -20 -20
71 0 0 0 0 0 0
72 0 0 0 0 110 110
73 0 0 0 0 40 40
74 0 0 0 0 1004 1004
75 0 0 0 0 261 261
76 0 0 0 0 90 90
77 0 0 0 0 146 146
78 0 0 0 0 0 0
79 0 0 0 0 -20 -20
80 0 0 0 0 0 0
81 0 0 0 0 1936 1936
82 0 0 0 0 45 45
83 0 0 0 0 3598 3598
84 0 0 0 0 92 92
85 0 0 0 0 90 90
86 0 0 0 0 272 272
87 0 0 0 0 274 274
88 0 0 0 0 20 20
89 0 0 0 0 463 0
90 0 0 0 0 1013 1013
91 0 0 0 0 50 50
92 0 0 0 0 3303 3303
93 0 0 0 0 224 224
94 0 0 0 0 90 90
95 0 0 0 0 116 116
96 0 0 0 0 0 0
97 0 0 0 0 20 20
98 0 0 0 0 354 0
99 0 0 0 0 1092 1092
100 0 0 0 0 55 55
101 0 0 0 0 3072 3072
102 0 0 0 0 83 83
103 0 0 0 0 90 90
104 0 0 0 0 201 201
105 0 0 0 0 521 521
106 0 0 0 0 30 30
107 0 0 0 0 143 0
108 0 0 0 0 1131 1131
109 0 0 0 0 60 60
110 0 0 0 0 2650 2650
111 0 0 0 0 67 67
112 0 0 0 0 90 90
113 0 0 0 0 50 50
114 0 0 0 0 311 311
115 0 0 0 0 10 10
116 0 0 0 0 412 0
117 0 0 0 0 260 260
118 0 0 0 0 65 65
119 0 0 0 0 2486 2486
120 0 0 0 0 239 239
121 0 0 0 0 90 90
122 0 0 0 0 102 102
123 0 0 0 0 0 0
124 0 0 0 0 30 30
125 0 0 0 0 353 0
126 0 0 0 0 2113 2113
127 0 0 0 0 70 0
128 0 0 0 0 1389 1389
129 0 0 0 0 231 231
130 0 0 0 0 90 90
131 0 0 0 0 114 114
132 0 0 0 0 222 222
133 0 0 0 0 40 40
134 0 0 0 0 503 0
135 0 0 0 0 496 496
136 0 0 0 0 75 0
137 0 0 0 0 3562 3562
138 0 0 0 0 125 125
139 0 0 0 0 90 90
140 0 0 0 0 203 203
141 0 0 0 0 281 281
142 0 0 0 0 20 20
143 0 0 0 0 276 0
144 0 0 0 0 183 183
145 0 0 0 0 80 80
146 0 0 0 0 1011 1011
147 0 0 0 0 263 263
148 0 0 0 0 90 90
149 0 0 0 0 137 137
150 0 0 0 0 0 0
DEPOT_SECTION
1 
-1
EOF
